units       real
atom_style  charge

variable    T equal 300
variable    V equal vol
variable    dt equal 0.25
variable    p equal 200     # correlation length
variable    s equal 10      # sample interval
variable    d equal $p*$s   # dump interval

variable    kB equal 1.3806504e-23    # [J/K] Boltzmann
variable    kCal2J equal 4186.0/6.02214e23
variable    A2m equal 1.0e-10
variable    fs2s equal 1.0e-15
variable    convert equal ${kCal2J}*${kCal2J}/${fs2s}/${A2m}


dimension    3
boundary     p p p
lattice custom 1 spacing 1.0 1.0 1.0 a1 6.518352 0.0 0.0 a2 0.0 6.518352 0.0 a3 0.0 0.0 6.518352 &
basis 0.0 0.0 0.0 &
basis 0.5 0.0 0.0 &
basis 0.0 0.5 0.0 &
basis 0.5 0.5 0.0 &
basis 0.0 0.0 0.5 &
basis 0.5 0.0 0.5 &
basis 0.0 0.5 0.5 &
basis 0.5 0.5 0.5



region       box block 0 13.036704 0 13.036704 0 78.220224
create_box   2 box
create_atoms 2 region box basis 1 1 basis 2 2 basis 3 2 basis 4 1 basis 5 2 basis 6 1 basis 7 1 basis 8 2

group Pb type 1
group Te type 2

mass 2 127.60
mass 1 207.2

set group Pb charge 0.666
set group Te charge -0.666

kspace_style    ewald 1.0e-6
#kspace_modify slab nozforce

pair_style hybrid/overlay buck 8.0 coul/long 12.0
pair_coeff 1 1 buck 1941770 0.0754 1406.9
pair_coeff 1 2 buck 2124600 0.2552 13507
pair_coeff 2 2 buck 40900460 0.2565 14.1
pair_coeff * * coul/long

neighbor 0.3 bin
neigh_modify every 20 delay 0 check no

timestep     ${dt}
thermo            $d

#MINIMIZATION
minimize 0.0 1.0e-8 1000 100000

thermo_modify lost ignore flush yes

velocity     all create $T 102486 mom yes rot yes dist gaussian
fix          NVT all nvt temp $T $T 10 drag 0.2
run          800


reset_timestep 0
compute      myKE all ke/atom
compute      myPE all pe/atom
compute      myStress all stress/atom NULL virial
compute      flux all heat/flux myKE myPE myStress
variable     Jx equal c_flux[1]/vol
variable     Jy equal c_flux[2]/vol
variable     Jz equal c_flux[3]/vol
fix          JJ all ave/correlate $s $p $d &
             c_flux[1] c_flux[2] c_flux[3] type auto file J0Jt.dat ave running
variable     scale equal ${convert}/${kB}/$T/$T/$V*$s*${dt}
variable     k11 equal trap(f_JJ[3])*${scale}
variable     k22 equal trap(f_JJ[4])*${scale}
variable     k33 equal trap(f_JJ[5])*${scale}
thermo_style custom step temp v_Jx v_Jy v_Jz v_k11 v_k22 v_k33
thermo_modify lost ignore flush yes
dump            D1 all atom 10000 dump.k_calc_production
run          1500000


variable     k equal (v_k11+v_k22+v_k33)/3.0
variable     ndens equal count(all)/vol
print        "average conductivity: $k[W/mK] @ $T K, ${ndens} /A^3"
